Version identifier: 20.1.0.0 | 2020-11-10 | 9bedb6d68
Tried aggregator 3 times.
MIP Presolve eliminated 881 rows and 481 columns.
MIP Presolve modified 1749 coefficients.
Aggregator did 98 substitutions.
Reduced MIP has 727 rows, 628 columns, and 2298 nonzeros.
Reduced MIP has 181 binaries, 447 generals, 0 SOSs, and 0 indicators.
Presolve time = 0.01 sec. (4.41 ticks)
Found incumbent of value 37.000000 after 0.02 sec. (7.10 ticks)
Probing fixed 20 vars, tightened 168 bounds.
Probing time = 0.00 sec. (0.56 ticks)
Tried aggregator 2 times.
Detecting symmetries...
MIP Presolve eliminated 292 rows and 41 columns.
MIP Presolve modified 80 coefficients.
Aggregator did 16 substitutions.
Reduced MIP has 419 rows, 571 columns, and 1358 nonzeros.
Reduced MIP has 224 binaries, 347 generals, 0 SOSs, and 0 indicators.
Presolve time = 0.00 sec. (2.01 ticks)
Probing time = 0.00 sec. (0.11 ticks)
Clique table members: 21.
MIP emphasis: balance optimality and feasibility.
MIP search method: dynamic search.
Parallel mode: deterministic, using up to 24 threads.
Root relaxation solution time = 0.00 sec. (1.35 ticks)

        Nodes                                         Cuts/
   Node  Left     Objective  IInf  Best Integer    Best Bound    ItCnt     Gap

*     0+    0                           37.0000        0.0000           100.00%
*     0+    0                           29.0000        0.0000           100.00%
      0     0        0.2000    32       29.0000        0.2000      170   99.31%
*     0+    0                           21.0000        0.2000            99.05%
      0     0        2.1667   129       21.0000      Cuts: 77      282   89.68%
*     0+    0                           16.0000        2.1667            86.46%
      0     0        2.2584   154       16.0000      Cuts: 56      368   85.88%
      0     0        3.0000   122       16.0000      Cuts: 47      463   81.25%
      0     0        3.0000    92       16.0000      Cuts: 44      509   81.25%
      0     0        3.0000   140       16.0000      Cuts: 39      551   81.25%
      0     0        3.0229   199       16.0000   ZeroHalf: 9      777   81.11%
      0     0        3.2857   187       16.0000     Cuts: 111      910   79.46%
      0     0        3.3333   136       16.0000      Cuts: 64      955   79.17%
      0     0        3.3333   214       16.0000      Cuts: 39      988   79.17%
*     0+    0                           13.0000        3.3333            74.36%
*     0+    0                           11.0000        3.3333            69.70%
      0     0        cutoff             11.0000       11.0000      988    0.00%
Elapsed time = 0.16 sec. (76.87 ticks, tree = 0.01 MB, solutions = 6)

Cover cuts applied:  8
Implied bound cuts applied:  12
Flow cuts applied:  2
Mixed integer rounding cuts applied:  14
Zero-half cuts applied:  33
Gomory fractional cuts applied:  3

Root node processing (before b&c):
  Real time             =    0.16 sec. (76.96 ticks)
Parallel b&c, 24 threads:
  Real time             =    0.00 sec. (0.00 ticks)
  Sync time (average)   =    0.00 sec.
  Wait time (average)   =    0.00 sec.
                          ------------
Total (root+branch&cut) =    0.16 sec. (76.96 ticks)

Solution status = Optimal
Solution LB = 11
Solution UB = 11
Runtime = 0.170694 seconds
	Command being timed: "/home/min/git_repos/CS598MEBProject/CNT-ILP/build/cnt -s 2 ./output/k6_n20/simC_c1_k6_n20_u3_s1_del04.input-right.cnp"
	User time (seconds): 0.84
	System time (seconds): 0.04
	Percent of CPU this job got: 480%
	Elapsed (wall clock) time (h:mm:ss or m:ss): 0:00.18
	Average shared text size (kbytes): 0
	Average unshared data size (kbytes): 0
	Average stack size (kbytes): 0
	Average total size (kbytes): 0
	Maximum resident set size (kbytes): 58884
	Average resident set size (kbytes): 0
	Major (requiring I/O) page faults: 0
	Minor (reclaiming a frame) page faults: 12116
	Voluntary context switches: 2667
	Involuntary context switches: 103
	Swaps: 0
	File system inputs: 0
	File system outputs: 16
	Socket messages sent: 0
	Socket messages received: 0
	Signals delivered: 0
	Page size (bytes): 4096
	Exit status: 0
